11
0 52 29 17 20 58 5 69 86 8 26 
57 0 8 37 65 24 84 20 34 80 11 
64 52 0 92 72 87 48 47 20 74 92 
91 74 61 0 18 25 86 80 40 91 46 
65 98 95 38 0 95 31 74 16 82 64 
1 22 35 31 38 0 70 34 94 83 78 
71 70 26 82 70 39 0 52 10 11 33 
88 84 56 93 50 82 12 0 36 89 96 
96 31 12 77 63 51 44 18 0 16 63 
54 91 51 8 79 49 71 1 65 0 19 
62 35 20 5 25 2 77 98 80 29 0 
